11,1	0,0	7,5	7,3	0,0	0,0	0,0	0,0	0,0	17,1
17,3	9,9	0,0	17,7	10,7	0,0	0,0	11,6	0,0	0,0
0,0	0,0	12,7	0,0	18,2	7,3	0,0	0,0	7,3	0,0
5,2	0,0	15,7	0,0	0,0	0,0	18,0	0,0	0,0	0,0
0,0	12,0	0,0	10,8	11,4	0,0	0,0	15,8	0,0	0,0
0,0	15,3	18,7	0,0	11,0	8,7	0,0	0,0	8,0	0,0
0,0	19,7	0,0	5,3	0,0	0,0	17,7	0,0	0,0	16,0
15,5	0,0	14,3	0,0	0,0	0,0	0,0	0,0	0,0	7,6
0,0	15,5	0,0	11,9	10,6	0,0	0,0	7,2	0,0	0,0
0,0	0,0	7,5	0,0	0,0	14,7	14,1	0,0	0,0	19,9
									
3,6	3,4	4,5	3,7	5,0	3,4	4,4	4,0	5,0	5,0
